NAME : census.-55099524.tour
COMMENT : Length = -55099524
COMMENT : Found by LKH [Keld Helsgaun] Tue May 25 08:54:40 2021
TYPE : TOUR
DIMENSION : 68
TOUR_SECTION
1
40
50
3
43
51
45
48
29
2
39
41
56
12
16
5
38
55
28
65
11
68
60
31
46
36
44
23
13
21
10
57
58
59
22
24
53
4
26
30
18
7
61
19
20
49
52
34
42
37
35
33
17
8
6
63
14
62
67
15
47
32
9
25
27
64
66
54
-1
EOF
